aux_benchmarks/lp2sat/smokers_4_3_prob.lp.lp.cnf
p cnf 21 34
6 18 0
-6 -18 0
7 -6 0
-7 6 0
8 19 0
-8 -19 0
9 -8 0
-9 8 0
10 20 0
-10 -20 0
11 -10 0
-11 10 0
12 21 0
-12 -21 0
13 -12 0
-13 12 0
14 0
15 0
16 0
17 0
18 6 0
-18 -6 0
19 8 0
-19 -8 0
20 10 0
-20 -10 0
21 12 0
-21 -12 0
-1 0
-1 0
-2 0
-3 0
-4 0
-5 0
c p auxilliary 1 2 3 4 5 18 19 20 21 0
