aux_benchmarks/smokers/smokers_4_3_prob.lp.cnf
p cnf 20 28
13 0
-1 13 0
1 -13 0
14 0
-2 14 0
2 -14 0
15 0
-3 15 0
3 -15 0
16 0
-4 16 0
4 -16 0
17 -5 0
-17 5 0
-6 17 0
6 -17 0
18 -7 0
-18 7 0
-8 18 0
8 -18 0
19 -9 0
-19 9 0
-10 19 0
10 -19 0
20 -12 0
-20 12 0
-11 20 0
11 -20 0
c p weight 1 1.0;1.0;1.0;1.0 0
c p weight -1 1.0;1.0;1.0;1.0 0
c p weight 2 1.0;1.0;1.0;1.0 0
c p weight -2 1.0;1.0;1.0;1.0 0
c p weight 3 1.0;1.0;1.0;1.0 0
c p weight -3 1.0;1.0;1.0;1.0 0
c p weight 4 1.0;1.0;1.0;1.0 0
c p weight -4 1.0;1.0;1.0;1.0 0
c p weight 5 0.5;0.5;0.5;0.5 0
c p weight -5 0.5;0.5;0.5;0.5 0
c p weight 6 1.0;1.0;1.0;1.0 0
c p weight -6 0.0;1.0;1.0;1.0 0
c p weight 7 0.5;0.5;0.5;0.5 0
c p weight -7 0.5;0.5;0.5;0.5 0
c p weight 8 1.0;1.0;1.0;1.0 0
c p weight -8 1.0;0.0;1.0;1.0 0
c p weight 9 0.5;0.5;0.5;0.5 0
c p weight -9 0.5;0.5;0.5;0.5 0
c p weight 10 1.0;1.0;1.0;1.0 0
c p weight -10 1.0;1.0;0.0;1.0 0
c p weight 11 1.0;1.0;1.0;1.0 0
c p weight -11 1.0;1.0;1.0;0.0 0
c p weight 12 0.5;0.5;0.5;0.5 0
c p weight -12 0.5;0.5;0.5;0.5 0
c p weight 13 1.0;1.0;1.0;1.0 0
c p weight -13 1.0;1.0;1.0;1.0 0
c p weight 14 1.0;1.0;1.0;1.0 0
c p weight -14 1.0;1.0;1.0;1.0 0
c p weight 15 1.0;1.0;1.0;1.0 0
c p weight -15 1.0;1.0;1.0;1.0 0
c p weight 16 1.0;1.0;1.0;1.0 0
c p weight -16 1.0;1.0;1.0;1.0 0
c p weight 17 1.0;1.0;1.0;1.0 0
c p weight -17 1.0;1.0;1.0;1.0 0
c p weight 18 1.0;1.0;1.0;1.0 0
c p weight -18 1.0;1.0;1.0;1.0 0
c p weight 19 1.0;1.0;1.0;1.0 0
c p weight -19 1.0;1.0;1.0;1.0 0
c p weight 20 1.0;1.0;1.0;1.0 0
c p weight -20 1.0;1.0;1.0;1.0 0
c p semirings aspmc.semirings.probabilistic 0
c p quantify 1 2 3 4 5 6 7 8 9 10 11 12 13 14 15 16 17 18 19 20 0
c p auxilliary 1 2 3 4 13 14 15 16 17 18 19 20 0
